c nIsolatedPIs 0
c maxPI 16
p cnf 407 1174
c gate 17 6 10 0
6 -17 0
10 -17 0
-6 -10 17 0
c gate 18 7 9 0
7 -18 0
9 -18 0
-7 -9 18 0
c gate 19 17 18 0
17 -19 0
18 -19 0
-17 -18 19 0
c gate 20 5 11 0
5 -20 0
11 -20 0
-5 -11 20 0
c gate 21 -17 -18 0
-17 -21 0
-18 -21 0
17 18 21 0
c gate 22 -19 -21 0
-19 -22 0
-21 -22 0
19 21 22 0
c gate 23 20 22 0
20 -23 0
22 -23 0
-20 -22 23 0
c gate 24 -19 -23 0
-19 -24 0
-23 -24 0
19 23 24 0
c gate 25 6 11 0
6 -25 0
11 -25 0
-6 -11 25 0
c gate 26 7 10 0
7 -26 0
10 -26 0
-7 -10 26 0
c gate 27 8 9 0
8 -27 0
9 -27 0
-8 -9 27 0
c gate 28 -26 -27 0
-26 -28 0
-27 -28 0
26 27 28 0
c gate 29 26 27 0
26 -29 0
27 -29 0
-26 -27 29 0
c gate 30 -28 -29 0
-28 -30 0
-29 -30 0
28 29 30 0
c gate 31 25 30 0
25 -31 0
30 -31 0
-25 -30 31 0
c gate 32 -25 -30 0
-25 -32 0
-30 -32 0
25 30 32 0
c gate 33 -31 -32 0
-31 -33 0
-32 -33 0
31 32 33 0
c gate 34 -24 33 0
-24 -34 0
33 -34 0
24 -33 34 0
c gate 35 3 14 0
3 -35 0
14 -35 0
-3 -14 35 0
c gate 36 4 13 0
4 -36 0
13 -36 0
-4 -13 36 0
c gate 37 5 12 0
5 -37 0
12 -37 0
-5 -12 37 0
c gate 38 -36 -37 0
-36 -38 0
-37 -38 0
36 37 38 0
c gate 39 36 37 0
36 -39 0
37 -39 0
-36 -37 39 0
c gate 40 -38 -39 0
-38 -40 0
-39 -40 0
38 39 40 0
c gate 41 -35 -40 0
-35 -41 0
-40 -41 0
35 40 41 0
c gate 42 35 40 0
35 -42 0
40 -42 0
-35 -40 42 0
c gate 43 -41 -42 0
-41 -43 0
-42 -43 0
41 42 43 0
c gate 44 24 -33 0
24 -44 0
-33 -44 0
-24 33 44 0
c gate 45 -34 -44 0
-34 -45 0
-44 -45 0
34 44 45 0
c gate 46 43 45 0
43 -46 0
45 -46 0
-43 -45 46 0
c gate 47 -34 -46 0
-34 -47 0
-46 -47 0
34 46 47 0
c gate 48 4 14 0
4 -48 0
14 -48 0
-4 -14 48 0
c gate 49 5 13 0
5 -49 0
13 -49 0
-5 -13 49 0
c gate 50 6 12 0
6 -50 0
12 -50 0
-6 -12 50 0
c gate 51 -49 -50 0
-49 -51 0
-50 -51 0
49 50 51 0
c gate 52 49 50 0
49 -52 0
50 -52 0
-49 -50 52 0
c gate 53 -51 -52 0
-51 -53 0
-52 -53 0
51 52 53 0
c gate 54 -48 -53 0
-48 -54 0
-53 -54 0
48 53 54 0
c gate 55 48 53 0
48 -55 0
53 -55 0
-48 -53 55 0
c gate 56 -54 -55 0
-54 -56 0
-55 -56 0
54 55 56 0
c gate 57 8 10 0
8 -57 0
10 -57 0
-8 -10 57 0
c gate 58 7 11 0
7 -58 0
11 -58 0
-7 -11 58 0
c gate 59 -57 -58 0
-57 -59 0
-58 -59 0
57 58 59 0
c gate 60 57 58 0
57 -60 0
58 -60 0
-57 -58 60 0
c gate 61 -59 -60 0
-59 -61 0
-60 -61 0
59 60 61 0
c gate 62 -29 -31 0
-29 -62 0
-31 -62 0
29 31 62 0
c gate 63 61 -62 0
61 -63 0
-62 -63 0
-61 62 63 0
c gate 64 -61 62 0
-61 -64 0
62 -64 0
61 -62 64 0
c gate 65 -63 -64 0
-63 -65 0
-64 -65 0
63 64 65 0
c gate 66 56 65 0
56 -66 0
65 -66 0
-56 -65 66 0
c gate 67 -56 -65 0
-56 -67 0
-65 -67 0
56 65 67 0
c gate 68 -66 -67 0
-66 -68 0
-67 -68 0
66 67 68 0
c gate 69 -47 68 0
-47 -69 0
68 -69 0
47 -68 69 0
c gate 70 2 16 0
2 -70 0
16 -70 0
-2 -16 70 0
c gate 71 3 15 0
3 -71 0
15 -71 0
-3 -15 71 0
c gate 72 -39 -42 0
-39 -72 0
-42 -72 0
39 42 72 0
c gate 73 71 -72 0
71 -73 0
-72 -73 0
-71 72 73 0
c gate 74 -71 72 0
-71 -74 0
72 -74 0
71 -72 74 0
c gate 75 -73 -74 0
-73 -75 0
-74 -75 0
73 74 75 0
c gate 76 70 75 0
70 -76 0
75 -76 0
-70 -75 76 0
c gate 77 -70 -75 0
-70 -77 0
-75 -77 0
70 75 77 0
c gate 78 -76 -77 0
-76 -78 0
-77 -78 0
76 77 78 0
c gate 79 47 -68 0
47 -79 0
-68 -79 0
-47 68 79 0
c gate 80 -69 -79 0
-69 -80 0
-79 -80 0
69 79 80 0
c gate 81 78 80 0
78 -81 0
80 -81 0
-78 -80 81 0
c gate 82 -69 -81 0
-69 -82 0
-81 -82 0
69 81 82 0
c gate 83 3 16 0
3 -83 0
16 -83 0
-3 -16 83 0
c gate 84 4 15 0
4 -84 0
15 -84 0
-4 -15 84 0
c gate 85 -52 -55 0
-52 -85 0
-55 -85 0
52 55 85 0
c gate 86 84 -85 0
84 -86 0
-85 -86 0
-84 85 86 0
c gate 87 -84 85 0
-84 -87 0
85 -87 0
84 -85 87 0
c gate 88 -86 -87 0
-86 -88 0
-87 -88 0
86 87 88 0
c gate 89 83 88 0
83 -89 0
88 -89 0
-83 -88 89 0
c gate 90 -83 -88 0
-83 -90 0
-88 -90 0
83 88 90 0
c gate 91 -89 -90 0
-89 -91 0
-90 -91 0
89 90 91 0
c gate 92 -63 -66 0
-63 -92 0
-66 -92 0
63 66 92 0
c gate 93 5 14 0
5 -93 0
14 -93 0
-5 -14 93 0
c gate 94 6 13 0
6 -94 0
13 -94 0
-6 -13 94 0
c gate 95 7 12 0
7 -95 0
12 -95 0
-7 -12 95 0
c gate 96 -94 -95 0
-94 -96 0
-95 -96 0
94 95 96 0
c gate 97 94 95 0
94 -97 0
95 -97 0
-94 -95 97 0
c gate 98 -96 -97 0
-96 -98 0
-97 -98 0
96 97 98 0
c gate 99 -93 -98 0
-93 -99 0
-98 -99 0
93 98 99 0
c gate 100 93 98 0
93 -100 0
98 -100 0
-93 -98 100 0
c gate 101 -99 -100 0
-99 -101 0
-100 -101 0
99 100 101 0
c gate 102 8 11 0
8 -102 0
11 -102 0
-8 -11 102 0
c gate 103 -26 102 0
-26 -103 0
102 -103 0
26 -102 103 0
c gate 104 101 103 0
101 -104 0
103 -104 0
-101 -103 104 0
c gate 105 -101 -103 0
-101 -105 0
-103 -105 0
101 103 105 0
c gate 106 -104 -105 0
-104 -106 0
-105 -106 0
104 105 106 0
c gate 107 -92 106 0
-92 -107 0
106 -107 0
92 -106 107 0
c gate 108 92 -106 0
92 -108 0
-106 -108 0
-92 106 108 0
c gate 109 -107 -108 0
-107 -109 0
-108 -109 0
107 108 109 0
c gate 110 91 109 0
91 -110 0
109 -110 0
-91 -109 110 0
c gate 111 -91 -109 0
-91 -111 0
-109 -111 0
91 109 111 0
c gate 112 -110 -111 0
-110 -112 0
-111 -112 0
110 111 112 0
c gate 113 -82 112 0
-82 -113 0
112 -113 0
82 -112 113 0
c gate 114 -73 -76 0
-73 -114 0
-76 -114 0
73 76 114 0
c gate 115 82 -112 0
82 -115 0
-112 -115 0
-82 112 115 0
c gate 116 -113 -115 0
-113 -116 0
-115 -116 0
113 115 116 0
c gate 117 -114 116 0
-114 -117 0
116 -117 0
114 -116 117 0
c gate 118 -113 -117 0
-113 -118 0
-117 -118 0
113 117 118 0
c gate 119 -86 -89 0
-86 -119 0
-89 -119 0
86 89 119 0
c gate 120 -107 -110 0
-107 -120 0
-110 -120 0
107 110 120 0
c gate 121 4 16 0
4 -121 0
16 -121 0
-4 -16 121 0
c gate 122 5 15 0
5 -122 0
15 -122 0
-5 -15 122 0
c gate 123 -97 -100 0
-97 -123 0
-100 -123 0
97 100 123 0
c gate 124 122 -123 0
122 -124 0
-123 -124 0
-122 123 124 0
c gate 125 -122 123 0
-122 -125 0
123 -125 0
122 -123 125 0
c gate 126 -124 -125 0
-124 -126 0
-125 -126 0
124 125 126 0
c gate 127 121 126 0
121 -127 0
126 -127 0
-121 -126 127 0
c gate 128 -121 -126 0
-121 -128 0
-126 -128 0
121 126 128 0
c gate 129 -127 -128 0
-127 -129 0
-128 -129 0
127 128 129 0
c gate 130 6 14 0
6 -130 0
14 -130 0
-6 -14 130 0
c gate 131 7 13 0
7 -131 0
13 -131 0
-7 -13 131 0
c gate 132 8 12 0
8 -132 0
12 -132 0
-8 -12 132 0
c gate 133 -131 -132 0
-131 -133 0
-132 -133 0
131 132 133 0
c gate 134 131 132 0
131 -134 0
132 -134 0
-131 -132 134 0
c gate 135 -133 -134 0
-133 -135 0
-134 -135 0
133 134 135 0
c gate 136 130 135 0
130 -136 0
135 -136 0
-130 -135 136 0
c gate 137 -130 -135 0
-130 -137 0
-135 -137 0
130 135 137 0
c gate 138 -136 -137 0
-136 -138 0
-137 -138 0
136 137 138 0
c gate 139 -60 -104 0
-60 -139 0
-104 -139 0
60 104 139 0
c gate 140 138 -139 0
138 -140 0
-139 -140 0
-138 139 140 0
c gate 141 -138 139 0
-138 -141 0
139 -141 0
138 -139 141 0
c gate 142 -140 -141 0
-140 -142 0
-141 -142 0
140 141 142 0
c gate 143 129 142 0
129 -143 0
142 -143 0
-129 -142 143 0
c gate 144 -129 -142 0
-129 -144 0
-142 -144 0
129 142 144 0
c gate 145 -143 -144 0
-143 -145 0
-144 -145 0
143 144 145 0
c gate 146 -120 145 0
-120 -146 0
145 -146 0
120 -145 146 0
c gate 147 120 -145 0
120 -147 0
-145 -147 0
-120 145 147 0
c gate 148 -146 -147 0
-146 -148 0
-147 -148 0
146 147 148 0
c gate 149 -119 148 0
-119 -149 0
148 -149 0
119 -148 149 0
c gate 150 119 -148 0
119 -150 0
-148 -150 0
-119 148 150 0
c gate 151 -149 -150 0
-149 -151 0
-150 -151 0
149 150 151 0
c gate 152 118 -151 0
118 -152 0
-151 -152 0
-118 151 152 0
c gate 153 6 9 0
6 -153 0
9 -153 0
-6 -9 153 0
c gate 154 5 10 0
5 -154 0
10 -154 0
-5 -10 154 0
c gate 155 153 154 0
153 -155 0
154 -155 0
-153 -154 155 0
c gate 156 -153 -154 0
-153 -156 0
-154 -156 0
153 154 156 0
c gate 157 -155 -156 0
-155 -157 0
-156 -157 0
155 156 157 0
c gate 158 4 11 0
4 -158 0
11 -158 0
-4 -11 158 0
c gate 159 157 158 0
157 -159 0
158 -159 0
-157 -158 159 0
c gate 160 -155 -159 0
-155 -160 0
-159 -160 0
155 159 160 0
c gate 161 -20 -22 0
-20 -161 0
-22 -161 0
20 22 161 0
c gate 162 -23 -161 0
-23 -162 0
-161 -162 0
23 161 162 0
c gate 163 -160 162 0
-160 -163 0
162 -163 0
160 -162 163 0
c gate 164 2 14 0
2 -164 0
14 -164 0
-2 -14 164 0
c gate 165 4 12 0
4 -165 0
12 -165 0
-4 -12 165 0
c gate 166 3 13 0
3 -166 0
13 -166 0
-3 -13 166 0
c gate 167 -165 -166 0
-165 -167 0
-166 -167 0
165 166 167 0
c gate 168 165 166 0
165 -168 0
166 -168 0
-165 -166 168 0
c gate 169 -167 -168 0
-167 -169 0
-168 -169 0
167 168 169 0
c gate 170 -164 -169 0
-164 -170 0
-169 -170 0
164 169 170 0
c gate 171 164 169 0
164 -171 0
169 -171 0
-164 -169 171 0
c gate 172 -170 -171 0
-170 -172 0
-171 -172 0
170 171 172 0
c gate 173 160 -162 0
160 -173 0
-162 -173 0
-160 162 173 0
c gate 174 -163 -173 0
-163 -174 0
-173 -174 0
163 173 174 0
c gate 175 172 174 0
172 -175 0
174 -175 0
-172 -174 175 0
c gate 176 -163 -175 0
-163 -176 0
-175 -176 0
163 175 176 0
c gate 177 -43 -45 0
-43 -177 0
-45 -177 0
43 45 177 0
c gate 178 -46 -177 0
-46 -178 0
-177 -178 0
46 177 178 0
c gate 179 -176 178 0
-176 -179 0
178 -179 0
176 -178 179 0
c gate 180 1 16 0
1 -180 0
16 -180 0
-1 -16 180 0
c gate 181 2 15 0
2 -181 0
15 -181 0
-2 -15 181 0
c gate 182 -168 -171 0
-168 -182 0
-171 -182 0
168 171 182 0
c gate 183 181 -182 0
181 -183 0
-182 -183 0
-181 182 183 0
c gate 184 -181 182 0
-181 -184 0
182 -184 0
181 -182 184 0
c gate 185 -183 -184 0
-183 -185 0
-184 -185 0
183 184 185 0
c gate 186 -180 -185 0
-180 -186 0
-185 -186 0
180 185 186 0
c gate 187 180 185 0
180 -187 0
185 -187 0
-180 -185 187 0
c gate 188 -186 -187 0
-186 -188 0
-187 -188 0
186 187 188 0
c gate 189 176 -178 0
176 -189 0
-178 -189 0
-176 178 189 0
c gate 190 -179 -189 0
-179 -190 0
-189 -190 0
179 189 190 0
c gate 191 188 190 0
188 -191 0
190 -191 0
-188 -190 191 0
c gate 192 -179 -191 0
-179 -192 0
-191 -192 0
179 191 192 0
c gate 193 -78 -80 0
-78 -193 0
-80 -193 0
78 80 193 0
c gate 194 -81 -193 0
-81 -194 0
-193 -194 0
81 193 194 0
c gate 195 -192 194 0
-192 -195 0
194 -195 0
192 -194 195 0
c gate 196 -183 -187 0
-183 -196 0
-187 -196 0
183 187 196 0
c gate 197 192 -194 0
192 -197 0
-194 -197 0
-192 194 197 0
c gate 198 -195 -197 0
-195 -198 0
-197 -198 0
195 197 198 0
c gate 199 -196 198 0
-196 -199 0
198 -199 0
196 -198 199 0
c gate 200 -195 -199 0
-195 -200 0
-199 -200 0
195 199 200 0
c gate 201 114 -116 0
114 -201 0
-116 -201 0
-114 116 201 0
c gate 202 -117 -201 0
-117 -202 0
-201 -202 0
117 201 202 0
c gate 203 200 -202 0
200 -203 0
-202 -203 0
-200 202 203 0
c gate 204 -152 -203 0
-152 -204 0
-203 -204 0
152 203 204 0
c gate 205 5 9 0
5 -205 0
9 -205 0
-5 -9 205 0
c gate 206 4 10 0
4 -206 0
10 -206 0
-4 -10 206 0
c gate 207 205 206 0
205 -207 0
206 -207 0
-205 -206 207 0
c gate 208 3 11 0
3 -208 0
11 -208 0
-3 -11 208 0
c gate 209 -205 -206 0
-205 -209 0
-206 -209 0
205 206 209 0
c gate 210 -207 -209 0
-207 -210 0
-209 -210 0
207 209 210 0
c gate 211 208 210 0
208 -211 0
210 -211 0
-208 -210 211 0
c gate 212 -207 -211 0
-207 -212 0
-211 -212 0
207 211 212 0
c gate 213 -157 -158 0
-157 -213 0
-158 -213 0
157 158 213 0
c gate 214 -159 -213 0
-159 -214 0
-213 -214 0
159 213 214 0
c gate 215 -212 214 0
-212 -215 0
214 -215 0
212 -214 215 0
c gate 216 212 -214 0
212 -216 0
-214 -216 0
-212 214 216 0
c gate 217 -215 -216 0
-215 -217 0
-216 -217 0
215 216 217 0
c gate 218 1 14 0
1 -218 0
14 -218 0
-1 -14 218 0
c gate 219 3 12 0
3 -219 0
12 -219 0
-3 -12 219 0
c gate 220 2 13 0
2 -220 0
13 -220 0
-2 -13 220 0
c gate 221 -219 -220 0
-219 -221 0
-220 -221 0
219 220 221 0
c gate 222 219 220 0
219 -222 0
220 -222 0
-219 -220 222 0
c gate 223 -221 -222 0
-221 -223 0
-222 -223 0
221 222 223 0
c gate 224 218 223 0
218 -224 0
223 -224 0
-218 -223 224 0
c gate 225 -218 -223 0
-218 -225 0
-223 -225 0
218 223 225 0
c gate 226 -224 -225 0
-224 -226 0
-225 -226 0
224 225 226 0
c gate 227 217 226 0
217 -227 0
226 -227 0
-217 -226 227 0
c gate 228 -215 -227 0
-215 -228 0
-227 -228 0
215 227 228 0
c gate 229 -172 -174 0
-172 -229 0
-174 -229 0
172 174 229 0
c gate 230 -175 -229 0
-175 -230 0
-229 -230 0
175 229 230 0
c gate 231 -228 230 0
-228 -231 0
230 -231 0
228 -230 231 0
c gate 232 1 15 0
1 -232 0
15 -232 0
-1 -15 232 0
c gate 233 -222 -224 0
-222 -233 0
-224 -233 0
222 224 233 0
c gate 234 232 -233 0
232 -234 0
-233 -234 0
-232 233 234 0
c gate 235 -232 233 0
-232 -235 0
233 -235 0
232 -233 235 0
c gate 236 -234 -235 0
-234 -236 0
-235 -236 0
234 235 236 0
c gate 237 228 -230 0
228 -237 0
-230 -237 0
-228 230 237 0
c gate 238 -231 -237 0
-231 -238 0
-237 -238 0
231 237 238 0
c gate 239 236 238 0
236 -239 0
238 -239 0
-236 -238 239 0
c gate 240 -231 -239 0
-231 -240 0
-239 -240 0
231 239 240 0
c gate 241 -188 -190 0
-188 -241 0
-190 -241 0
188 190 241 0
c gate 242 -191 -241 0
-191 -242 0
-241 -242 0
191 241 242 0
c gate 243 -240 242 0
-240 -243 0
242 -243 0
240 -242 243 0
c gate 244 240 -242 0
240 -244 0
-242 -244 0
-240 242 244 0
c gate 245 -243 -244 0
-243 -245 0
-244 -245 0
243 244 245 0
c gate 246 234 245 0
234 -246 0
245 -246 0
-234 -245 246 0
c gate 247 -243 -246 0
-243 -247 0
-246 -247 0
243 246 247 0
c gate 248 196 -198 0
196 -248 0
-198 -248 0
-196 198 248 0
c gate 249 -199 -248 0
-199 -249 0
-248 -249 0
199 248 249 0
c gate 250 -247 249 0
-247 -250 0
249 -250 0
247 -249 250 0
c gate 251 -200 202 0
-200 -251 0
202 -251 0
200 -202 251 0
c gate 252 -250 -251 0
-250 -252 0
-251 -252 0
250 251 252 0
c gate 253 204 -252 0
204 -253 0
-252 -253 0
-204 252 253 0
c gate 254 -118 151 0
-118 -254 0
151 -254 0
118 -151 254 0
c gate 255 -146 -149 0
-146 -255 0
-149 -255 0
146 149 255 0
c gate 256 -124 -127 0
-124 -256 0
-127 -256 0
124 127 256 0
c gate 257 5 16 0
5 -257 0
16 -257 0
-5 -16 257 0
c gate 258 6 15 0
6 -258 0
15 -258 0
-6 -15 258 0
c gate 259 -134 -136 0
-134 -259 0
-136 -259 0
134 136 259 0
c gate 260 258 -259 0
258 -260 0
-259 -260 0
-258 259 260 0
c gate 261 -258 259 0
-258 -261 0
259 -261 0
258 -259 261 0
c gate 262 -260 -261 0
-260 -262 0
-261 -262 0
260 261 262 0
c gate 263 257 262 0
257 -263 0
262 -263 0
-257 -262 263 0
c gate 264 -257 -262 0
-257 -264 0
-262 -264 0
257 262 264 0
c gate 265 -263 -264 0
-263 -265 0
-264 -265 0
263 264 265 0
c gate 266 8 13 0
8 -266 0
13 -266 0
-8 -13 266 0
c gate 267 7 14 0
7 -267 0
14 -267 0
-7 -14 267 0
c gate 268 -266 -267 0
-266 -268 0
-267 -268 0
266 267 268 0
c gate 269 266 267 0
266 -269 0
267 -269 0
-266 -267 269 0
c gate 270 -268 -269 0
-268 -270 0
-269 -270 0
268 269 270 0
c gate 271 265 270 0
265 -271 0
270 -271 0
-265 -270 271 0
c gate 272 -265 -270 0
-265 -272 0
-270 -272 0
265 270 272 0
c gate 273 -271 -272 0
-271 -273 0
-272 -273 0
271 272 273 0
c gate 274 -140 -143 0
-140 -274 0
-143 -274 0
140 143 274 0
c gate 275 273 -274 0
273 -275 0
-274 -275 0
-273 274 275 0
c gate 276 -273 274 0
-273 -276 0
274 -276 0
273 -274 276 0
c gate 277 -275 -276 0
-275 -277 0
-276 -277 0
275 276 277 0
c gate 278 -256 277 0
-256 -278 0
277 -278 0
256 -277 278 0
c gate 279 256 -277 0
256 -279 0
-277 -279 0
-256 277 279 0
c gate 280 -278 -279 0
-278 -280 0
-279 -280 0
278 279 280 0
c gate 281 -255 280 0
-255 -281 0
280 -281 0
255 -280 281 0
c gate 282 -254 -281 0
-254 -282 0
-281 -282 0
254 281 282 0
c gate 283 -253 282 0
-253 -283 0
282 -283 0
253 -282 283 0
c gate 284 255 -280 0
255 -284 0
-280 -284 0
-255 280 284 0
c gate 285 -275 -278 0
-275 -285 0
-278 -285 0
275 278 285 0
c gate 286 -260 -263 0
-260 -286 0
-263 -286 0
260 263 286 0
c gate 287 8 14 0
8 -287 0
14 -287 0
-8 -14 287 0
c gate 288 6 16 0
6 -288 0
16 -288 0
-6 -16 288 0
c gate 289 7 15 0
7 -289 0
15 -289 0
-7 -15 289 0
c gate 290 -269 -289 0
-269 -290 0
-289 -290 0
269 289 290 0
c gate 291 15 269 0
15 -291 0
269 -291 0
-15 -269 291 0
c gate 292 -290 -291 0
-290 -292 0
-291 -292 0
290 291 292 0
c gate 293 288 292 0
288 -293 0
292 -293 0
-288 -292 293 0
c gate 294 -288 -292 0
-288 -294 0
-292 -294 0
288 292 294 0
c gate 295 -293 -294 0
-293 -295 0
-294 -295 0
293 294 295 0
c gate 296 287 295 0
287 -296 0
295 -296 0
-287 -295 296 0
c gate 297 -287 -295 0
-287 -297 0
-295 -297 0
287 295 297 0
c gate 298 -296 -297 0
-296 -298 0
-297 -298 0
296 297 298 0
c gate 299 271 298 0
271 -299 0
298 -299 0
-271 -298 299 0
c gate 300 -271 -298 0
-271 -300 0
-298 -300 0
271 298 300 0
c gate 301 -299 -300 0
-299 -301 0
-300 -301 0
299 300 301 0
c gate 302 -286 301 0
-286 -302 0
301 -302 0
286 -301 302 0
c gate 303 286 -301 0
286 -303 0
-301 -303 0
-286 301 303 0
c gate 304 -302 -303 0
-302 -304 0
-303 -304 0
302 303 304 0
c gate 305 285 -304 0
285 -305 0
-304 -305 0
-285 304 305 0
c gate 306 -284 -305 0
-284 -306 0
-305 -306 0
284 305 306 0
c gate 307 -283 306 0
-283 -307 0
306 -307 0
283 -306 307 0
c gate 308 -285 304 0
-285 -308 0
304 -308 0
285 -304 308 0
c gate 309 -299 -302 0
-299 -309 0
-302 -309 0
299 302 309 0
c gate 310 -291 -293 0
-291 -310 0
-293 -310 0
291 293 310 0
c gate 311 7 16 0
7 -311 0
16 -311 0
-7 -16 311 0
c gate 312 8 15 0
8 -312 0
15 -312 0
-8 -15 312 0
c gate 313 311 312 0
311 -313 0
312 -313 0
-311 -312 313 0
c gate 314 -311 -312 0
-311 -314 0
-312 -314 0
311 312 314 0
c gate 315 -313 -314 0
-313 -315 0
-314 -315 0
313 314 315 0
c gate 316 296 -315 0
296 -316 0
-315 -316 0
-296 315 316 0
c gate 317 -296 315 0
-296 -317 0
315 -317 0
296 -315 317 0
c gate 318 -316 -317 0
-316 -318 0
-317 -318 0
316 317 318 0
c gate 319 -310 -318 0
-310 -319 0
-318 -319 0
310 318 319 0
c gate 320 310 318 0
310 -320 0
318 -320 0
-310 -318 320 0
c gate 321 -319 -320 0
-319 -321 0
-320 -321 0
319 320 321 0
c gate 322 -309 321 0
-309 -322 0
321 -322 0
309 -321 322 0
c gate 323 -308 -322 0
-308 -323 0
-322 -323 0
308 322 323 0
c gate 324 -307 323 0
-307 -324 0
323 -324 0
307 -323 324 0
c gate 325 313 319 0
313 -325 0
319 -325 0
-313 -319 325 0
c gate 326 -309 325 0
-309 -326 0
325 -326 0
309 -325 326 0
c gate 327 -324 326 0
-324 -327 0
326 -327 0
324 -326 327 0
c gate 328 2 12 0
2 -328 0
12 -328 0
-2 -12 328 0
c gate 329 1 13 0
1 -329 0
13 -329 0
-1 -13 329 0
c gate 330 328 329 0
328 -330 0
329 -330 0
-328 -329 330 0
c gate 331 4 9 0
4 -331 0
9 -331 0
-4 -9 331 0
c gate 332 3 10 0
3 -332 0
10 -332 0
-3 -10 332 0
c gate 333 331 332 0
331 -333 0
332 -333 0
-331 -332 333 0
c gate 334 2 11 0
2 -334 0
11 -334 0
-2 -11 334 0
c gate 335 -331 -332 0
-331 -335 0
-332 -335 0
331 332 335 0
c gate 336 -333 -335 0
-333 -336 0
-335 -336 0
333 335 336 0
c gate 337 334 336 0
334 -337 0
336 -337 0
-334 -336 337 0
c gate 338 -333 -337 0
-333 -338 0
-337 -338 0
333 337 338 0
c gate 339 -208 -210 0
-208 -339 0
-210 -339 0
208 210 339 0
c gate 340 -211 -339 0
-211 -340 0
-339 -340 0
211 339 340 0
c gate 341 -338 340 0
-338 -341 0
340 -341 0
338 -340 341 0
c gate 342 -328 -329 0
-328 -342 0
-329 -342 0
328 329 342 0
c gate 343 -330 -342 0
-330 -343 0
-342 -343 0
330 342 343 0
c gate 344 338 -340 0
338 -344 0
-340 -344 0
-338 340 344 0
c gate 345 -341 -344 0
-341 -345 0
-344 -345 0
341 344 345 0
c gate 346 343 345 0
343 -346 0
345 -346 0
-343 -345 346 0
c gate 347 -341 -346 0
-341 -347 0
-346 -347 0
341 346 347 0
c gate 348 -217 -226 0
-217 -348 0
-226 -348 0
217 226 348 0
c gate 349 -227 -348 0
-227 -349 0
-348 -349 0
227 348 349 0
c gate 350 -347 349 0
-347 -350 0
349 -350 0
347 -349 350 0
c gate 351 347 -349 0
347 -351 0
-349 -351 0
-347 349 351 0
c gate 352 -350 -351 0
-350 -352 0
-351 -352 0
350 351 352 0
c gate 353 330 352 0
330 -353 0
352 -353 0
-330 -352 353 0
c gate 354 -330 -352 0
-330 -354 0
-352 -354 0
330 352 354 0
c gate 355 -353 -354 0
-353 -355 0
-354 -355 0
353 354 355 0
c gate 356 -334 -336 0
-334 -356 0
-336 -356 0
334 336 356 0
c gate 357 -337 -356 0
-337 -357 0
-356 -357 0
337 356 357 0
c gate 358 3 9 0
3 -358 0
9 -358 0
-3 -9 358 0
c gate 359 2 10 0
2 -359 0
10 -359 0
-2 -10 359 0
c gate 360 358 359 0
358 -360 0
359 -360 0
-358 -359 360 0
c gate 361 -358 -359 0
-358 -361 0
-359 -361 0
358 359 361 0
c gate 362 1 11 0
1 -362 0
11 -362 0
-1 -11 362 0
c gate 363 -361 362 0
-361 -363 0
362 -363 0
361 -362 363 0
c gate 364 -360 -363 0
-360 -364 0
-363 -364 0
360 363 364 0
c gate 365 357 -364 0
357 -365 0
-364 -365 0
-357 364 365 0
c gate 366 1 12 0
1 -366 0
12 -366 0
-1 -12 366 0
c gate 367 -357 364 0
-357 -367 0
364 -367 0
357 -364 367 0
c gate 368 -365 -367 0
-365 -368 0
-367 -368 0
365 367 368 0
c gate 369 366 368 0
366 -369 0
368 -369 0
-366 -368 369 0
c gate 370 -365 -369 0
-365 -370 0
-369 -370 0
365 369 370 0
c gate 371 -343 -345 0
-343 -371 0
-345 -371 0
343 345 371 0
c gate 372 -346 -371 0
-346 -372 0
-371 -372 0
346 371 372 0
c gate 373 -370 372 0
-370 -373 0
372 -373 0
370 -372 373 0
c gate 374 370 -372 0
370 -374 0
-372 -374 0
-370 372 374 0
c gate 375 -366 -368 0
-366 -375 0
-368 -375 0
366 368 375 0
c gate 376 -3 -11 0
-3 -376 0
-11 -376 0
3 11 376 0
c gate 377 -208 -376 0
-208 -377 0
-376 -377 0
208 376 377 0
c gate 378 1 9 0
1 -378 0
9 -378 0
-1 -9 378 0
c gate 379 359 378 0
359 -379 0
378 -379 0
-359 -378 379 0
c gate 380 -377 379 0
-377 -380 0
379 -380 0
377 -379 380 0
c gate 381 -369 380 0
-369 -381 0
380 -381 0
369 -380 381 0
c gate 382 -375 381 0
-375 -382 0
381 -382 0
375 -381 382 0
c gate 383 -374 382 0
-374 -383 0
382 -383 0
374 -382 383 0
c gate 384 -373 383 0
-373 -384 0
383 -384 0
373 -383 384 0
c gate 385 355 384 0
355 -385 0
384 -385 0
-355 -384 385 0
c gate 386 -234 -245 0
-234 -386 0
-245 -386 0
234 245 386 0
c gate 387 -246 -386 0
-246 -387 0
-386 -387 0
246 386 387 0
c gate 388 -350 -353 0
-350 -388 0
-353 -388 0
350 353 388 0
c gate 389 -236 -238 0
-236 -389 0
-238 -389 0
236 238 389 0
c gate 390 -239 -389 0
-239 -390 0
-389 -390 0
239 389 390 0
c gate 391 -388 390 0
-388 -391 0
390 -391 0
388 -390 391 0
c gate 392 -387 -391 0
-387 -392 0
-391 -392 0
387 391 392 0
c gate 393 247 -249 0
247 -393 0
-249 -393 0
-247 249 393 0
c gate 394 -284 -393 0
-284 -394 0
-393 -394 0
284 393 394 0
c gate 395 -392 394 0
-392 -395 0
394 -395 0
392 -394 395 0
c gate 396 387 391 0
387 -396 0
391 -396 0
-387 -391 396 0
c gate 397 355 373 0
355 -397 0
373 -397 0
-355 -373 397 0
c gate 398 -385 -397 0
-385 -398 0
-397 -398 0
385 397 398 0
c gate 399 388 -390 0
388 -399 0
-390 -399 0
-388 390 399 0
c gate 400 -391 -399 0
-391 -400 0
-399 -400 0
391 399 400 0
c gate 401 -398 400 0
-398 -401 0
400 -401 0
398 -400 401 0
c gate 402 -396 -401 0
-396 -402 0
-401 -402 0
396 401 402 0
c gate 403 204 -402 0
204 -403 0
-402 -403 0
-204 402 403 0
c gate 404 395 403 0
395 -404 0
403 -404 0
-395 -403 404 0
c gate 405 283 404 0
283 -405 0
404 -405 0
-283 -404 405 0
c gate 406 -385 -405 0
-385 -406 0
-405 -406 0
385 405 406 0
c gate 407 -327 406 0
-327 -407 0
406 -407 0
327 -406 407 0
c PO
-407 0
